c This is a sample UNSATISFIABLE problem (uuf50-01.cnf)
c It has 50 variables and 218 clauses.
c The known minimum number of unsatisfied clauses is 2.
p cnf 50 218
-1 2 3 0
1 -2 3 0
1 2 -3 0
-1 -2 -3 0
-1 2 4 0
1 -2 4 0
-1 -2 -4 0
1 2 -4 0
-1 2 5 0
1 -2 5 0
1 2 -5 0
-1 -2 -5 0
-1 3 4 0
1 -3 4 0
1 3 -4 0
-1 -3 -4 0
-1 3 5 0
1 -3 5 0
-1 -3 -5 0
1 3 -5 0
-1 4 5 0
1 -4 5 0
-1 -4 -5 0
1 4 -5 0
-2 3 4 0
2 -3 4 0
2 3 -4 0
-2 -3 -4 0
-2 3 5 0
2 -3 5 0
-2 -3 -5 0
2 3 -5 0
-2 4 5 0
2 -4 5 0
-2 -4 -5 0
2 4 -5 0
-3 4 5 0
3 -4 5 0
-3 -4 -5 0
3 4 -5 0
-1 -2 6 0
-1 3 7 0
-1 4 8 0
-1 5 9 0
-1 6 10 0
-1 7 11 0
-1 8 12 0
-1 9 13 0
-1 10 14 0
-1 11 15 0
-1 12 16 0
-1 13 17 0
-1 14 18 0
-1 15 19 0
-1 16 20 0
-1 17 21 0
-1 18 22 0
-1 19 23 0
-1 20 24 0
-1 21 25 0
-1 22 26 0
-1 23 27 0
-1 24 28 0
-1 25 29 0
-1 26 30 0
-1 27 31 0
-1 28 32 0
-1 29 33 0
-1 30 34 0
-1 31 35 0
-1 32 36 0
-1 33 37 0
-1 34 38 0
-1 35 39 0
-1 36 40 0
-1 37 41 0
-1 38 42 0
-1 39 43 0
-1 40 44 0
-1 41 45 0
-1 42 46 0
-1 43 47 0
-1 44 48 0
-1 45 49 0
-1 46 50 0
2 6 7 0
-2 -6 -7 0
2 6 8 0
-2 -6 -8 0
2 6 9 0
-2 -6 -9 0
2 6 10 0
-2 -6 -10 0
2 6 11 0
-2 -6 -11 0
2 6 12 0
-2 -6 -12 0
2 6 13 0
-2 -6 -13 0
2 6 14 0
-2 -6 -14 0
2 6 15 0
-2 -6 -15 0
2 6 16 0
-2 -6 -16 0
2 6 17 0
-2 -6 -17 0
2 6 18 0
-2 -6 -18 0
2 6 19 0
-2 -6 -19 0
2 6 20 0
-2 -6 -20 0
2 6 21 0
-2 -6 -21 0
2 6 22 0
-2 -6 -22 0
2 6 23 0
-2 -6 -23 0
2 6 24 0
-2 -6 -24 0
2 6 25 0
-2 -6 -25 0
2 6 26 0
-2 -6 -26 0
2 6 27 0
-2 -6 -27 0
2 6 28 0
-2 -6 -28 0
2 6 29 0
-2 -6 -29 0
2 6 30 0
-2 -6 -30 0
2 6 31 0
-2 -6 -31 0
2 6 32 0
-2 -6 -32 0
2 6 33 0
-2 -6 -33 0
2 6 34 0
-2 -6 -34 0
2 6 35 0
-2 -6 -35 0
2 6 36 0
-2 -6 -36 0
2 6 37 0
-2 -6 -37 0
2 6 38 0
-2 -6 -38 0
2 6 39 0
-2 -6 -39 0
2 6 40 0
-2 -6 -40 0
2 6 41 0
-2 -6 -41 0
2 6 42 0
-2 -6 -42 0
2 6 43 0
-2 -6 -43 0
2 6 44 0
-2 -6 -44 0
2 6 45 0
-2 -6 -45 0
2 6 46 0
-2 -6 -46 0
2 6 47 0
-2 -6 -47 0
2 6 48 0
-2 -6 -48 0
2 6 49 0
-2 -6 -49 0
2 6 50 0
-2 -6 -50 0
2 7 8 0
-2 -7 -8 0
2 7 9 0
-2 -7 -9 0
2 7 10 0
-2 -7 -10 0
2 7 11 0
-2 -7 -11 0
2 7 12 0
-2 -7 -12 0
2 7 13 0
-2 -7 -13 0
2 7 14 0
-2 -7 -14 0
2 7 15 0
-2 -7 -15 0
